objective value:                                12094
t_x_4                                               1 	(obj:33)
t_x_6                                               1 	(obj:1)
t_x_8                                               1 	(obj:54)
t_x_15                                              1 	(obj:10)
t_x_16                                              1 	(obj:15)
t_x_17                                              1 	(obj:6)
t_x_19                                              1 	(obj:35)
t_x_22                                              1 	(obj:38)
t_x_23                                              1 	(obj:56)
t_x_25                                              1 	(obj:0)
t_x_26                                              1 	(obj:30)
t_x_27                                              1 	(obj:52)
t_x_35                                              1 	(obj:43)
t_x_38                                              1 	(obj:11)
t_x_39                                              1 	(obj:26)
t_x_40                                              1 	(obj:2)
t_x_47                                              1 	(obj:47)
t_x_48                                              1 	(obj:8)
t_x_54                                              1 	(obj:15)
t_x_55                                              1 	(obj:58)
t_x_61                                              1 	(obj:16)
t_x_64                                              1 	(obj:27)
t_x_66                                              1 	(obj:13)
t_x_67                                              1 	(obj:13)
t_x_70                                              1 	(obj:9)
t_x_75                                              1 	(obj:13)
t_x_76                                              1 	(obj:17)
t_x_78                                              1 	(obj:2)
t_x_86                                              1 	(obj:30)
t_x_87                                              1 	(obj:31)
t_x_88                                              1 	(obj:23)
t_x_89                                              1 	(obj:31)
t_x_93                                              1 	(obj:25)
t_x_94                                              1 	(obj:15)
t_x_103                                             1 	(obj:14)
t_x_107                                             1 	(obj:31)
t_x_112                                             1 	(obj:10)
t_x_115                                             1 	(obj:7)
t_x_116                                             1 	(obj:0)
t_x_117                                             1 	(obj:37)
t_x_118                                             1 	(obj:19)
t_x_119                                             1 	(obj:33)
t_x_120                                             1 	(obj:6)
t_x_121                                             1 	(obj:51)
t_x_122                                             1 	(obj:35)
t_x_127                                             1 	(obj:14)
t_x_131                                             1 	(obj:37)
t_x_140                                             1 	(obj:15)
t_x_141                                             1 	(obj:4)
t_x_142                                             1 	(obj:14)
t_x_145                                             1 	(obj:9)
t_x_146                                             1 	(obj:21)
t_x_153                                             1 	(obj:3)
t_x_157                                             1 	(obj:34)
t_x_163                                             1 	(obj:6)
t_x_166                                             1 	(obj:5)
t_x_168                                             1 	(obj:6)
t_x_173                                             1 	(obj:17)
t_x_186                                             1 	(obj:8)
t_x_189                                             1 	(obj:29)
t_x_191                                             1 	(obj:23)
t_x_196                                             1 	(obj:1)
t_x_201                                             1 	(obj:9)
t_x_209                                             1 	(obj:36)
t_x_214                                             1 	(obj:2)
t_x_216                                             1 	(obj:22)
t_x_219                                             1 	(obj:13)
t_x_225                                             1 	(obj:13)
t_x_226                                             1 	(obj:34)
t_x_227                                             1 	(obj:6)
t_x_231                                             1 	(obj:22)
t_x_233                                             1 	(obj:14)
t_x_234                                             1 	(obj:15)
t_x_246                                             1 	(obj:10)
t_x_252                                             1 	(obj:31)
t_x_253                                             1 	(obj:67)
t_x_254                                             1 	(obj:14)
t_x_262                                             1 	(obj:23)
t_x_263                                             1 	(obj:33)
t_x_267                                             1 	(obj:16)
t_x_269                                             1 	(obj:1)
t_x_271                                             1 	(obj:33)
t_x_275                                             1 	(obj:9)
t_x_277                                             1 	(obj:26)
t_x_279                                             1 	(obj:39)
t_x_282                                             1 	(obj:47)
t_x_284                                             1 	(obj:7)
t_x_287                                             1 	(obj:20)
t_x_292                                             1 	(obj:37)
t_x_301                                             1 	(obj:24)
t_x_303                                             1 	(obj:11)
t_x_304                                             1 	(obj:43)
t_x_305                                             1 	(obj:54)
t_x_308                                             1 	(obj:0)
t_x_309                                             1 	(obj:24)
t_x_319                                             1 	(obj:0)
t_x_320                                             1 	(obj:46)
t_x_321                                             1 	(obj:7)
t_x_322                                             1 	(obj:5)
t_x_323                                             1 	(obj:13)
t_x_324                                             1 	(obj:42)
t_x_328                                             1 	(obj:18)
t_x_330                                             1 	(obj:31)
t_x_331                                             1 	(obj:8)
t_x_332                                             1 	(obj:32)
t_x_333                                             1 	(obj:9)
t_x_334                                             1 	(obj:5)
t_x_338                                             1 	(obj:47)
t_x_342                                             1 	(obj:22)
t_x_344                                             1 	(obj:17)
t_x_345                                             1 	(obj:13)
t_x_347                                             1 	(obj:25)
t_x_348                                             1 	(obj:9)
t_x_349                                             1 	(obj:24)
t_x_351                                             1 	(obj:16)
t_x_353                                             1 	(obj:18)
t_x_354                                             1 	(obj:1)
t_x_359                                             1 	(obj:11)
t_x_361                                             1 	(obj:8)
t_x_362                                             1 	(obj:27)
t_x_365                                             1 	(obj:18)
t_x_370                                             1 	(obj:16)
t_x_376                                             1 	(obj:3)
t_x_379                                             1 	(obj:13)
t_x_382                                             1 	(obj:35)
t_x_383                                             1 	(obj:26)
t_x_388                                             1 	(obj:0)
t_x_390                                             1 	(obj:5)
t_x_395                                             1 	(obj:12)
t_x_398                                             1 	(obj:25)
t_x_400                                             1 	(obj:6)
t_x_401                                             1 	(obj:11)
t_x_402                                             1 	(obj:11)
t_x_409                                             1 	(obj:35)
t_x_411                                             1 	(obj:7)
t_x_412                                             1 	(obj:29)
t_x_415                                             1 	(obj:14)
t_x_416                                             1 	(obj:13)
t_x_417                                             1 	(obj:6)
t_x_418                                             1 	(obj:5)
t_x_421                                             1 	(obj:8)
t_x_427                                             1 	(obj:11)
t_x_428                                             1 	(obj:7)
t_x_431                                             1 	(obj:11)
t_x_432                                             1 	(obj:13)
t_x_434                                             1 	(obj:0)
t_x_438                                             1 	(obj:21)
t_x_441                                             1 	(obj:4)
t_x_446                                             1 	(obj:55)
t_x_448                                             1 	(obj:8)
t_x_454                                             1 	(obj:35)
t_x_456                                             1 	(obj:23)
t_x_461                                             1 	(obj:17)
t_x_463                                             1 	(obj:23)
t_x_469                                             1 	(obj:2)
t_x_470                                             1 	(obj:5)
t_x_472                                             1 	(obj:16)
t_x_475                                             1 	(obj:16)
t_x_486                                             1 	(obj:2)
t_x_493                                             1 	(obj:19)
t_x_496                                             1 	(obj:18)
t_x_499                                             1 	(obj:4)
t_x_500                                             1 	(obj:13)
t_x_505                                             1 	(obj:25)
t_x_506                                             1 	(obj:25)
t_x_510                                             1 	(obj:0)
t_x_512                                             1 	(obj:19)
t_x_524                                             1 	(obj:6)
t_x_527                                             1 	(obj:19)
t_x_529                                             1 	(obj:27)
t_x_533                                             1 	(obj:11)
t_x_535                                             1 	(obj:20)
t_x_538                                             1 	(obj:34)
t_x_540                                             1 	(obj:11)
t_x_542                                             1 	(obj:14)
t_x_544                                             1 	(obj:28)
t_x_545                                             1 	(obj:28)
t_x_548                                             1 	(obj:1)
t_x_549                                             1 	(obj:13)
t_x_551                                             1 	(obj:37)
t_x_554                                             1 	(obj:10)
t_x_557                                             1 	(obj:5)
t_x_561                                             1 	(obj:4)
t_x_565                                             1 	(obj:12)
t_x_566                                             1 	(obj:32)
t_x_567                                             1 	(obj:60)
t_x_568                                             1 	(obj:45)
t_x_571                                             1 	(obj:0)
t_x_575                                             1 	(obj:47)
t_x_581                                             1 	(obj:31)
t_x_583                                             1 	(obj:2)
t_x_584                                             1 	(obj:41)
t_x_591                                             1 	(obj:4)
t_x_601                                             1 	(obj:16)
t_x_605                                             1 	(obj:2)
t_x_607                                             1 	(obj:12)
t_x_608                                             1 	(obj:30)
t_x_611                                             1 	(obj:45)
t_x_613                                             1 	(obj:27)
t_x_615                                             1 	(obj:16)
t_x_617                                             1 	(obj:30)
t_x_623                                             1 	(obj:15)
t_x_624                                             1 	(obj:22)
t_x_628                                             1 	(obj:64)
t_x_629                                             1 	(obj:31)
t_x_633                                             1 	(obj:17)
t_x_637                                             1 	(obj:14)
t_x_638                                             1 	(obj:3)
t_x_643                                             1 	(obj:56)
t_x_646                                             1 	(obj:7)
t_x_648                                             1 	(obj:18)
t_x_652                                             1 	(obj:4)
t_x_653                                             1 	(obj:9)
t_x_654                                             1 	(obj:37)
t_x_656                                             1 	(obj:4)
t_x_659                                             1 	(obj:25)
t_x_660                                             1 	(obj:24)
t_x_666                                             1 	(obj:6)
t_x_670                                             1 	(obj:2)
t_x_686                                             1 	(obj:8)
t_x_696                                             1 	(obj:25)
t_x_698                                             1 	(obj:56)
t_x_703                                             1 	(obj:0)
t_x_706                                             1 	(obj:12)
t_x_707                                             1 	(obj:0)
t_x_708                                             1 	(obj:23)
t_x_717                                             1 	(obj:8)
t_x_720                                             1 	(obj:14)
t_x_732                                             1 	(obj:12)
t_x_733                                             1 	(obj:26)
t_x_736                                             1 	(obj:0)
t_x_737                                             1 	(obj:18)
t_x_739                                             1 	(obj:12)
t_x_740                                             1 	(obj:7)
t_x_742                                             1 	(obj:42)
t_x_745                                             1 	(obj:17)
t_x_753                                             1 	(obj:40)
t_x_754                                             1 	(obj:15)
t_x_760                                             1 	(obj:14)
t_x_765                                             1 	(obj:41)
t_x_766                                             1 	(obj:17)
t_x_767                                             1 	(obj:8)
t_x_769                                             1 	(obj:9)
t_x_776                                             1 	(obj:6)
t_x_778                                             1 	(obj:24)
t_x_787                                             1 	(obj:5)
t_x_788                                             1 	(obj:7)
t_x_789                                             1 	(obj:49)
t_x_791                                             1 	(obj:50)
t_x_792                                             1 	(obj:7)
t_x_793                                             1 	(obj:5)
t_x_795                                             1 	(obj:31)
t_x_797                                             1 	(obj:51)
t_x_799                                             1 	(obj:4)
t_x_800                                             1 	(obj:0)
t_x_801                                             1 	(obj:18)
t_x_804                                             1 	(obj:18)
t_x_806                                             1 	(obj:34)
t_x_807                                             1 	(obj:40)
t_x_813                                             1 	(obj:11)
t_x_818                                             1 	(obj:0)
t_x_822                                             1 	(obj:34)
t_x_824                                             1 	(obj:17)
t_x_825                                             1 	(obj:71)
t_x_844                                             1 	(obj:23)
t_x_845                                             1 	(obj:11)
t_x_846                                             1 	(obj:13)
t_x_854                                             1 	(obj:17)
t_x_855                                             1 	(obj:4)
t_x_857                                             1 	(obj:11)
t_x_858                                             1 	(obj:18)
t_x_867                                             1 	(obj:0)
t_x_869                                             1 	(obj:71)
t_x_878                                             1 	(obj:7)
t_x_883                                             1 	(obj:28)
t_x_889                                             1 	(obj:10)
t_x_895                                             1 	(obj:5)
t_x_896                                             1 	(obj:7)
t_x_897                                             1 	(obj:4)
t_x_899                                             1 	(obj:14)
t_x_903                                             1 	(obj:11)
t_x_909                                             1 	(obj:13)
t_x_910                                             1 	(obj:30)
t_x_912                                             1 	(obj:23)
t_x_916                                             1 	(obj:26)
t_x_918                                             1 	(obj:37)
t_x_919                                             1 	(obj:76)
t_x_920                                             1 	(obj:34)
t_x_926                                             1 	(obj:9)
t_x_930                                             1 	(obj:23)
t_x_931                                             1 	(obj:67)
t_x_937                                             1 	(obj:18)
t_x_939                                             1 	(obj:3)
t_x_941                                             1 	(obj:31)
t_x_943                                             1 	(obj:22)
t_x_945                                             1 	(obj:69)
t_x_948                                             1 	(obj:21)
t_x_949                                             1 	(obj:35)
t_x_950                                             1 	(obj:4)
t_x_960                                             1 	(obj:19)
t_x_963                                             1 	(obj:64)
t_x_985                                             1 	(obj:44)
t_x_988                                             1 	(obj:39)
t_x_992                                             1 	(obj:10)
t_x_1002                                            1 	(obj:5)
t_x_1005                                            1 	(obj:59)
t_x_1006                                            1 	(obj:31)
t_x_1008                                            1 	(obj:13)
t_x_1009                                            1 	(obj:61)
t_x_1012                                            1 	(obj:43)
t_x_1013                                            1 	(obj:34)
t_x_1024                                            1 	(obj:6)
t_x_1025                                            1 	(obj:10)
t_x_1026                                            1 	(obj:35)
t_x_1028                                            1 	(obj:27)
t_x_1031                                            1 	(obj:11)
t_x_1033                                            1 	(obj:18)
t_x_1040                                            1 	(obj:20)
t_x_1041                                            1 	(obj:9)
t_x_1042                                            1 	(obj:34)
t_x_1043                                            1 	(obj:33)
t_x_1046                                            1 	(obj:6)
t_x_1059                                            1 	(obj:42)
t_x_1060                                            1 	(obj:25)
t_x_1062                                            1 	(obj:17)
t_x_1064                                            1 	(obj:20)
t_x_1065                                            1 	(obj:15)
t_x_1069                                            1 	(obj:11)
t_x_1070                                            1 	(obj:5)
t_x_1071                                            1 	(obj:30)
t_x_1076                                            1 	(obj:33)
t_x_1078                                            1 	(obj:16)
t_x_1081                                            1 	(obj:5)
t_x_1085                                            1 	(obj:15)
t_x_1086                                            1 	(obj:17)
t_x_1089                                            1 	(obj:15)
t_x_1091                                            1 	(obj:24)
t_x_1092                                            1 	(obj:24)
t_x_1093                                            1 	(obj:27)
t_x_1094                                            1 	(obj:39)
t_x_1095                                            1 	(obj:22)
t_x_1097                                            1 	(obj:18)
t_x_1101                                            1 	(obj:5)
t_x_1102                                            1 	(obj:6)
t_x_1106                                            1 	(obj:40)
t_x_1107                                            1 	(obj:2)
t_x_1116                                            1 	(obj:3)
t_x_1120                                            1 	(obj:23)
t_x_1125                                            1 	(obj:60)
t_x_1131                                            1 	(obj:10)
t_x_1133                                            1 	(obj:19)
t_x_1138                                            1 	(obj:6)
t_x_1154                                            1 	(obj:52)
t_x_1158                                            1 	(obj:15)
t_x_1165                                            1 	(obj:29)
t_x_1169                                            1 	(obj:29)
t_x_1174                                            1 	(obj:11)
t_x_1182                                            1 	(obj:10)
t_x_1183                                            1 	(obj:20)
t_x_1185                                            1 	(obj:1)
t_x_1189                                            1 	(obj:6)
t_x_1190                                            1 	(obj:12)
t_x_1192                                            1 	(obj:26)
t_x_1198                                            1 	(obj:51)
t_x_1209                                            1 	(obj:16)
t_x_1211                                            1 	(obj:28)
t_x_1220                                            1 	(obj:4)
t_x_1222                                            1 	(obj:29)
t_x_1224                                            1 	(obj:30)
t_x_1225                                            1 	(obj:5)
t_x_1228                                            1 	(obj:0)
t_x_1229                                            1 	(obj:0)
t_x_1239                                            1 	(obj:10)
t_x_1242                                            1 	(obj:21)
t_x_1248                                            1 	(obj:58)
t_x_1259                                            1 	(obj:8)
t_x_1264                                            1 	(obj:1)
t_x_1266                                            1 	(obj:5)
t_x_1271                                            1 	(obj:35)
t_x_1272                                            1 	(obj:43)
t_x_1275                                            1 	(obj:36)
t_x_1276                                            1 	(obj:32)
t_x_1278                                            1 	(obj:34)
t_x_1279                                            1 	(obj:20)
t_x_1282                                            1 	(obj:39)
t_x_1285                                            1 	(obj:5)
t_x_1289                                            1 	(obj:0)
t_x_1290                                            1 	(obj:32)
t_x_1294                                            1 	(obj:36)
t_x_1296                                            1 	(obj:2)
t_x_1303                                            1 	(obj:33)
t_x_1309                                            1 	(obj:10)
t_x_1315                                            1 	(obj:48)
t_x_1318                                            1 	(obj:14)
t_x_1320                                            1 	(obj:17)
t_x_1324                                            1 	(obj:11)
t_x_1326                                            1 	(obj:12)
t_x_1329                                            1 	(obj:8)
t_x_1331                                            1 	(obj:5)
t_x_1334                                            1 	(obj:6)
t_x_1337                                            1 	(obj:8)
t_x_1341                                            1 	(obj:6)
t_x_1345                                            1 	(obj:25)
t_x_1347                                            1 	(obj:3)
t_x_1348                                            1 	(obj:1)
t_x_1351                                            1 	(obj:16)
t_x_1352                                            1 	(obj:20)
t_x_1355                                            1 	(obj:21)
t_x_1356                                            1 	(obj:6)
t_x_1357                                            1 	(obj:42)
t_x_1366                                            1 	(obj:6)
t_x_1375                                            1 	(obj:0)
t_x_1379                                            1 	(obj:47)
t_x_1381                                            1 	(obj:25)
t_x_1382                                            1 	(obj:32)
t_x_1385                                            1 	(obj:0)
t_x_1390                                            1 	(obj:20)
t_x_1392                                            1 	(obj:35)
t_x_1396                                            1 	(obj:0)
t_x_1399                                            1 	(obj:5)
t_x_1402                                            1 	(obj:38)
t_x_1403                                            1 	(obj:11)
t_x_1404                                            1 	(obj:9)
t_x_1405                                            1 	(obj:20)
t_x_1408                                            1 	(obj:9)
t_x_1413                                            1 	(obj:9)
t_x_1414                                            1 	(obj:12)
t_x_1416                                            1 	(obj:15)
t_x_1417                                            1 	(obj:1)
t_x_1418                                            1 	(obj:20)
t_x_1422                                            1 	(obj:10)
t_x_1423                                            1 	(obj:34)
t_x_1424                                            1 	(obj:1)
t_x_1427                                            1 	(obj:12)
t_x_1429                                            1 	(obj:6)
t_x_1432                                            1 	(obj:7)
t_x_1436                                            1 	(obj:13)
t_x_1441                                            1 	(obj:30)
t_x_1444                                            1 	(obj:0)
t_x_1445                                            1 	(obj:24)
t_x_1453                                            1 	(obj:17)
t_x_1456                                            1 	(obj:19)
t_x_1458                                            1 	(obj:15)
t_x_1463                                            1 	(obj:12)
t_x_1466                                            1 	(obj:2)
t_x_1468                                            1 	(obj:39)
t_x_1469                                            1 	(obj:2)
t_x_1478                                            1 	(obj:38)
t_x_1484                                            1 	(obj:5)
t_x_1486                                            1 	(obj:42)
t_x_1487                                            1 	(obj:5)
t_x_1490                                            1 	(obj:21)
t_x_1492                                            1 	(obj:15)
t_x_1493                                            1 	(obj:5)
t_x_1497                                            1 	(obj:41)
t_x_1498                                            1 	(obj:57)
t_x_1510                                            1 	(obj:31)
t_x_1518                                            1 	(obj:13)
t_x_1521                                            1 	(obj:18)
t_x_1529                                            1 	(obj:50)
t_x_1537                                            1 	(obj:24)
t_x_1539                                            1 	(obj:41)
t_x_1541                                            1 	(obj:10)
t_x_1543                                            1 	(obj:1)
t_x_1546                                            1 	(obj:28)
t_x_1547                                            1 	(obj:1)
t_x_1550                                            1 	(obj:12)
t_x_1554                                            1 	(obj:19)
t_x_1555                                            1 	(obj:23)
t_x_1557                                            1 	(obj:8)
t_x_1558                                            1 	(obj:18)
t_x_1560                                            1 	(obj:5)
t_x_1563                                            1 	(obj:21)
t_x_1565                                            1 	(obj:22)
t_x_1566                                            1 	(obj:24)
t_x_1567                                            1 	(obj:16)
t_x_1572                                            1 	(obj:31)
t_x_1580                                            1 	(obj:18)
t_x_1581                                            1 	(obj:25)
t_x_1583                                            1 	(obj:28)
t_x_1589                                            1 	(obj:5)
t_x_1602                                            1 	(obj:6)
t_x_1603                                            1 	(obj:33)
t_x_1604                                            1 	(obj:16)
t_x_1607                                            1 	(obj:27)
t_x_1611                                            1 	(obj:18)
t_x_1618                                            1 	(obj:14)
t_x_1620                                            1 	(obj:19)
t_x_1626                                            1 	(obj:0)
t_x_1634                                            1 	(obj:35)
t_x_1638                                            1 	(obj:29)
t_x_1651                                            1 	(obj:27)
t_x_1654                                            1 	(obj:56)
t_x_1655                                            1 	(obj:24)
t_x_1659                                            1 	(obj:15)
t_x_1666                                            1 	(obj:81)
t_x_1667                                            1 	(obj:14)
t_x_1669                                            1 	(obj:25)
t_x_1670                                            1 	(obj:29)
t_x_1672                                            1 	(obj:20)
t_x_1677                                            1 	(obj:15)
t_x_1678                                            1 	(obj:10)
t_x_1682                                            1 	(obj:15)
t_x_1687                                            1 	(obj:31)
t_x_1690                                            1 	(obj:7)
t_x_1696                                            1 	(obj:24)
t_x_1697                                            1 	(obj:7)
t_x_1701                                            1 	(obj:8)
t_x_1703                                            1 	(obj:15)
t_x_1708                                            1 	(obj:6)
t_x_1710                                            1 	(obj:56)
t_x_1711                                            1 	(obj:4)
t_x_1719                                            1 	(obj:10)
t_x_1720                                            1 	(obj:10)
t_x_1725                                            1 	(obj:46)
t_x_1726                                            1 	(obj:27)
t_x_1730                                            1 	(obj:28)
t_x_1732                                            1 	(obj:19)
t_x_1736                                            1 	(obj:24)
t_x_1741                                            1 	(obj:14)
t_x_1742                                            1 	(obj:5)
t_x_1743                                            1 	(obj:13)
t_x_1746                                            1 	(obj:39)
t_x_1749                                            1 	(obj:40)
t_x_1754                                            1 	(obj:8)
t_x_1760                                            1 	(obj:2)
t_x_1762                                            1 	(obj:15)
t_x_1763                                            1 	(obj:14)
t_x_1765                                            1 	(obj:20)
t_x_1766                                            1 	(obj:71)
t_x_1770                                            1 	(obj:15)
t_x_1773                                            1 	(obj:6)
t_x_1774                                            1 	(obj:20)
t_x_1775                                            1 	(obj:18)
t_x_1777                                            1 	(obj:36)
t_x_1778                                            1 	(obj:25)
t_x_1782                                            1 	(obj:27)
t_x_1783                                            1 	(obj:16)
t_x_1790                                            1 	(obj:9)
t_x_1793                                            1 	(obj:8)
t_x_1797                                            1 	(obj:22)
t_x_1798                                            1 	(obj:0)
t_x_1803                                            1 	(obj:11)
t_x_1808                                            1 	(obj:23)
t_x_1810                                            1 	(obj:23)
t_x_1813                                            1 	(obj:40)
t_x_1816                                            1 	(obj:3)
t_x_1820                                            1 	(obj:15)
t_x_1821                                            1 	(obj:23)
t_x_1822                                            1 	(obj:1)
t_x_1823                                            1 	(obj:2)
t_x_1825                                            1 	(obj:31)
t_x_1826                                            1 	(obj:4)
t_x_1829                                            1 	(obj:7)
t_x_1834                                            1 	(obj:4)
t_x_1835                                            1 	(obj:10)
t_x_1837                                            1 	(obj:12)
t_x_1838                                            1 	(obj:3)
t_x_1841                                            1 	(obj:7)
t_x_1842                                            1 	(obj:6)
t_x_1843                                            1 	(obj:16)
t_x_1845                                            1 	(obj:21)
t_x_1846                                            1 	(obj:1)
t_x_1847                                            1 	(obj:26)
t_x_1853                                            1 	(obj:18)
t_x_1860                                            1 	(obj:20)
t_x_1864                                            1 	(obj:25)
t_x_1865                                            1 	(obj:6)
t_x_1869                                            1 	(obj:57)
t_x_1870                                            1 	(obj:67)
t_x_1873                                            1 	(obj:22)
t_x_1874                                            1 	(obj:7)
t_x_1875                                            1 	(obj:26)
t_x_1876                                            1 	(obj:13)
t_x_1878                                            1 	(obj:13)
t_x_1880                                            1 	(obj:6)
t_x_1883                                            1 	(obj:51)
t_x_1886                                            1 	(obj:27)
t_x_1891                                            1 	(obj:24)
t_x_1894                                            1 	(obj:37)
t_x_1896                                            1 	(obj:24)
t_x_1899                                            1 	(obj:60)
t_x_1901                                            1 	(obj:3)
t_x_1914                                            1 	(obj:38)
t_x_1919                                            1 	(obj:17)
t_x_1928                                            1 	(obj:7)
t_x_1935                                            1 	(obj:29)
t_x_1937                                            1 	(obj:18)
t_x_1945                                            1 	(obj:20)
t_x_1946                                            1 	(obj:8)
t_x_1952                                            1 	(obj:10)
t_x_1953                                            1 	(obj:3)
t_x_1955                                            1 	(obj:7)
t_x_1959                                            1 	(obj:16)
t_x_1961                                            1 	(obj:51)
t_x_1962                                            1 	(obj:12)
t_x_1971                                            1 	(obj:1)
t_x_1972                                            1 	(obj:24)
t_x_1973                                            1 	(obj:38)
t_x_1975                                            1 	(obj:11)
t_x_1977                                            1 	(obj:2)
t_x_1980                                            1 	(obj:5)
t_x_1981                                            1 	(obj:12)
t_x_1987                                            1 	(obj:13)
t_x_1988                                            1 	(obj:38)
t_x_1989                                            1 	(obj:18)
t_x_1990                                            1 	(obj:11)
t_x_1993                                            1 	(obj:7)
t_x_1995                                            1 	(obj:6)
t_x_1996                                            1 	(obj:6)
